sample/Mock/atila_nth.smt2
(set-logic QF_UF)

(declare-const a Bool)
(declare-const b Bool)
(declare-const c Bool)
(declare-const d Bool)
(assert (or a b c d))
(assert (or b (not d)))
(assert (not b))
(assert (or b (not a)))
(assert (or (not b) (not c)))
(assert (or a b))
(assert (or c (not a)))
(check-sat)
